[[78, 79, 88, 89, 90, 99, 98, 97, 96, 87, 95, 86, 85, 84, 94, 93, 92, 91, 83, 82, 73, 75, 76, 77, 68, 67, 66, 74, 65, 64, 55, 56, 57, 58, 59, 49, 50, 40, 39, 48, 47, 46, 38, 37, 28, 29, 30, 31, 21, 22, 19, 20, 13], [12, 11, 10, 2, 3, 4, 14, 5, 6, 7, 8, 9, 18, 17, 16, 15, 23, 24, 25, 26, 27, 35, 36, 44, 34, 43, 33, 32, 41, 42, 45, 51, 52, 53, 54, 63, 62, 60, 61, 69, 70, 71, 72, 81, 80]]